Route 1: 0 89 33 11 51 52 19 7 54 44 58 61 0
Route 2: 0 59 34 65 60 100 50 53 0
Route 3: 0 62 74 28 35 96 47 95 88 0
Route 4: 0 76 81 55 75 49 92 2 20 1 12 93 42 0
Route 5: 0 68 97 24 57 80 48 86 63 84 25 5 0
Route 6: 0 79 77 16 10 99 69 21 83 18 46 38 0
Route 7: 0 91 13 8 41 70 45 14 4 56 64 0
Route 8: 0 39 66 94 3 32 36 0
Route 9: 0 17 43 78 40 72 90 85 98 9 73 87 0
Route 10: 0 23 30 82 71 67 37 29 27 6 0
Route 11: 0 15 26 22 31 0
